100
128
36
44
51
16
6
7
26
47
6
54
59
35
16
8
23
29
59
46
22
16
22
10
38
29
30
13
49
55
18
55
13
29
21
14
15
21
28
16
34
32
8
32
23
12
38
41
39
28
19
8
15
15
19
30
29
23
46
59
20
29
59
54
19
61
63
27
40
27
55
30
2
56
29
23
40
22
54
52
19
30
2
36
60
46
42
63
63
59
29
32
48
37
40
64
64
53
28
47
40
7